(set-logic ALL)
(set-option :produce-models true)
(define-fun-rec str.toLower ((x String)) String
  (ite (= x "")
      ""
      (let ((Head (str.at x 0)))
        (str.++ 
          (ite (and (<= 65 (str.to_code Head)) 
                     (<= (str.to_code Head) 90))
               (str.from_code (+ (str.to_code Head) 32))
               Head)
          (str.toLower (str.substr x 1 (- (str.len x) 1)))))))
(declare-fun sym811 () String)
(declare-fun sym209 () String)
(declare-fun sym4717 () String)
(declare-fun sym1679 () String)
(declare-fun sym2538 () String)
(declare-fun sym2953 () String)
(declare-fun sym551 () String)
(declare-fun sym2107 () String)
(declare-fun sym4206 () String)
(declare-fun sym1257 () String)
(declare-fun sym4623 () String)
(declare-fun sym3169 () String)
(declare-fun sym2751 () String)
(declare-fun sym4413 () String)
(declare-fun sym1036 () String)
(declare-fun sym2323 () String)
(declare-fun sym1894 () String)
(declare-fun sym3376 () String)
(declare-fun sym3793 () String)
(declare-fun sym3583 () String)
(declare-fun sym4000 () String)
(declare-fun sym1470 () String)
(declare-fun sym161 () String)

(assert (not (= "y" "n" )))
(assert (not (= (str.toLower (str.substr sym3793  0 1))"p" )))
(assert (not (= (str.toLower (str.substr sym2953  0 1))"g" )))
(assert (not (= (str.toLower (str.substr sym3169  0 1))"p" )))
(assert (= (str.toLower (str.substr sym1679  0 1))"h" ))
(assert (= (str.toLower (str.substr sym551  0 1))"k" ))
(assert (not (= (str.toLower (str.substr sym811  0 1))"p" )))
(assert (not (= (str.toLower (str.substr sym1036  0 1))"k" )))
(assert (not (= (str.toLower (str.substr sym1470  0 1))"q" )))
(assert (not (= "" sym2323 )))
(assert (not (= (str.toLower (str.substr sym2751  0 1))"q" )))
(assert (not (= "" sym4623 )))
(assert (not (= "" sym811 )))
(assert (not (= (str.toLower (str.substr sym2323  0 1))"g" )))
(assert (not (= (str.toLower (str.substr sym4000  0 1))"p" )))
(assert (not (= (str.toLower (str.substr sym2538  0 1))"p" )))
(assert (not (= "" sym4206 )))
(assert (= (str.toLower (str.substr sym2107  0 1))"g" ))
(assert (not (= "" sym2751 )))
(assert (= (str.toLower (str.substr sym4206  0 1))"k" ))
(assert (not (= "" sym209 )))
(assert (not (= (str.toLower (str.substr sym2107  0 1))"p" )))
(assert (not (= (str.toLower (str.substr sym2751  0 1))"k" )))
(assert (not (= (str.toLower (str.substr sym2323  0 1))"k" )))
(assert (= (str.toLower (str.substr sym4623  0 1))"k" ))
(assert (not (= (str.toLower (str.substr sym2323  0 1))"r" )))
(assert (not (= "" sym3583 )))
(assert (not (= (str.toLower (str.substr sym1036  0 1))"l" )))
(assert (= (str.toLower (str.substr sym3793  0 1))"g" ))
(assert (= (str.toLower (str.substr sym1257  0 1))"k" ))
(assert (= (str.toLower (str.substr sym2323  0 1))"h" ))
(assert (not (= (str.toLower (str.substr sym1894  0 1))"p" )))
(assert (= (str.toLower (str.substr sym2751  0 1))"g" ))
(assert (not (= (str.toLower (str.substr sym1036  0 1))"p" )))
(assert (not (= (str.toLower (str.substr sym4000  0 1))"r" )))
(assert (not (= (str.toLower (str.substr sym3583  0 1))"p" )))
(assert (not (= (str.toLower (str.substr sym1679  0 1))"g" )))
(assert (not (= (str.toLower (str.substr sym551  0 1))"q" )))
(assert (not (= (str.toLower (str.substr sym3793  0 1))"q" )))
(assert (not (= (str.toLower (str.substr sym1257  0 1))"q" )))
(assert (not (= "" sym4413 )))
(assert (not (= (str.toLower (str.substr sym811  0 1))"k" )))
(assert (not (= (str.toLower (str.substr sym1679  0 1))"q" )))
(assert (not (= "" sym1257 )))
(assert (not (= (str.toLower (str.substr sym4206  0 1))"q" )))
(assert (= (str.toLower (str.substr sym209  0 1))"y" ))
(assert (not (= "" "n" )))
(assert (not (= (str.toLower (str.substr sym2107  0 1))"k" )))
(assert (= (str.toLower (str.substr sym3169  0 1))"k" ))
(assert (not (= (str.toLower (str.substr sym4413  0 1))"p" )))
(assert (not (= (str.toLower (str.substr sym1036  0 1))"r" )))
(assert (not (= (str.toLower (str.substr sym2953  0 1))"q" )))
(assert (not (= (str.toLower (str.substr sym4413  0 1))"q" )))
(assert (not (= (str.toLower (str.substr sym811  0 1))"q" )))
(assert (not (= (str.toLower (str.substr sym1036  0 1))"g" )))
(assert (not (= "" sym2107 )))
(assert (= "y" "y" ))
(assert (not (= (str.toLower (str.substr sym2953  0 1))"p" )))
(assert (not (= (str.toLower (str.substr sym2751  0 1))"p" )))
(assert (not (= (str.toLower (str.substr sym2538  0 1))"q" )))
(assert (not (= "" sym551 )))
(assert (not (= (str.toLower (str.substr sym1470  0 1))"p" )))
(assert (not (= (str.toLower (str.substr sym3583  0 1))"k" )))
(assert (not (= "n" "y" )))
(assert (not (= (str.toLower (str.substr sym2323  0 1))"q" )))
(assert (not (= "" sym4717 )))
(assert (not (= "" sym1470 )))
(assert (not (= (str.toLower (str.substr sym2107  0 1))"q" )))
(assert (not (= "" (str.toLower (str.substr sym209  0 1)))))
(assert (not (= (str.toLower (str.substr sym4413  0 1))"k" )))
(assert (= (str.toLower (str.substr sym3376  0 1))"k" ))
(assert (not (= "" "y" )))
(assert (not (= (str.toLower (str.substr sym3793  0 1))"k" )))
(assert (= (str.toLower (str.substr sym4000  0 1))"l" ))
(assert (= (str.toLower (str.substr sym3583  0 1))"g" ))
(assert (not (= (str.toLower (str.substr sym3169  0 1))"q" )))
(assert (not (= (str.toLower (str.substr sym1679  0 1))"k" )))
(assert (not (= (str.toLower (str.substr sym2953  0 1))"r" )))
(assert (not (= (str.toLower (str.substr sym1470  0 1))"k" )))
(assert (= (str.toLower (str.substr sym1470  0 1))"g" ))
(assert (not (= "" "y" )))
(assert (= (str.toLower (str.substr sym4413  0 1))"g" ))
(assert (= (str.toLower (str.substr sym2953  0 1))"h" ))
(assert (not (= "" sym4000 )))
(assert (not (= (str.toLower (str.substr sym1036  0 1))"q" )))
(assert (not (= (str.toLower (str.substr sym4623  0 1))"q" )))
(assert (not (= (str.toLower (str.substr sym1679  0 1))"r" )))
(assert (= "" "" ))
(assert (not (= (str.toLower (str.substr sym3583  0 1))"q" )))
(assert (not (= (str.toLower (str.substr sym1679  0 1))"p" )))
(assert (not (= "" "q" )))
(assert (not (= (str.toLower (str.substr sym2323  0 1))"l" )))
(assert (not (= (str.toLower (str.substr sym4623  0 1))"p" )))
(assert (not (= (str.toLower (str.substr sym4717  0 1))"y" )))
(assert (not (= "" sym3376 )))
(assert (not (= (str.toLower (str.substr sym1894  0 1))"q" )))
(assert (not (= "" sym1894 )))
(assert (not (= "" sym2953 )))
(assert (not (= "" sym1036 )))
(assert (not (= "" sym3169 )))
(assert (not (= (str.toLower (str.substr sym2953  0 1))"l" )))
(assert (not (= (str.toLower (str.substr sym1679  0 1))"l" )))
(assert (not (= (str.toLower (str.substr sym4000  0 1))"q" )))
(assert (= (str.toLower (str.substr sym1894  0 1))"k" ))
(assert (= (str.toLower (str.substr sym1036  0 1))"h" ))
(assert (not (= (str.toLower (str.substr sym4000  0 1))"g" )))
(assert (not (= "" (str.toLower (str.substr sym4717  0 1)))))
(assert (not (= (str.toLower (str.substr sym4206  0 1))"p" )))
(assert (not (= "" sym2538 )))
(assert (not (= (str.toLower (str.substr sym3376  0 1))"q" )))
(assert (= (str.toLower (str.substr sym811  0 1))"g" ))
(assert (not (= (str.toLower (str.substr sym2323  0 1))"p" )))
(assert (= "" sym161 ))
(assert (not (= (str.toLower (str.substr sym4000  0 1))"k" )))
(assert (not (= "" sym1679 )))
(assert (not (= (str.toLower (str.substr sym3376  0 1))"p" )))
(assert (= (str.toLower (str.substr sym2538  0 1))"k" ))
(assert (not (= "" sym3793 )))
(assert (not (= (str.toLower (str.substr sym551  0 1))"p" )))
(assert (not (= (str.toLower (str.substr sym1257  0 1))"p" )))
(assert (not (= (str.toLower (str.substr sym2953  0 1))"k" )))
(check-sat)
(get-model)
(exit)
